supercell_generated_POSCAR
1.0
-26.002 -17.514 0
19.501 8.757 0
0 0 22
B N C P
21 21 42 32
Direct
0.047619 0.95238 0
0 0 0
0.95238 0.047619 0
0.90476 0.095238 0
0.85714 0.14286 0
0.80952 0.19048 0
0.7619 0.2381 0
0.71429 0.28571 0
0.66667 0.33333 0
0.61905 0.38095 0
0.57143 0.42857 0
0.52381 0.47619 0
0.47619 0.52381 0
0.42857 0.57143 0
0.38095 0.61905 0
0.33333 0.66667 0
0.28571 0.71429 0
0.2381 0.7619 0
0.19048 0.80952 0
0.14286 0.85714 0
0.095238 0.90476 0
0.26984 0.39683 0
0.22222 0.44444 0
0.1746 0.49206 0
0.12698 0.53968 0
0.079365 0.5873 0
0.031746 0.63492 0
0.98413 0.68254 0
0.93651 0.73016 0
0.88889 0.77778 0
0.84127 0.8254 0
0.79365 0.87302 0
0.74603 0.92063 0
0.69841 0.96825 0
0.65079 0.015873 0
0.60317 0.063492 0
0.55556 0.11111 0
0.50794 0.15873 0
0.46032 0.20635 0
0.4127 0.25397 0
0.36508 0.30159 0
0.31746 0.34921 0
0.047619 0.95238 0.13636
0 0 0.13636
0.95238 0.047619 0.13636
0.90476 0.095238 0.13636
0.85714 0.14286 0.13636
0.80952 0.19048 0.13636
0.7619 0.2381 0.13636
0.71429 0.28571 0.13636
0.66667 0.33333 0.13636
0.61905 0.38095 0.13636
0.57143 0.42857 0.13636
0.52381 0.47619 0.13636
0.47619 0.52381 0.13636
0.42857 0.57143 0.13636
0.38095 0.61905 0.13636
0.33333 0.66667 0.13636
0.28571 0.71429 0.13636
0.2381 0.7619 0.13636
0.19048 0.80952 0.13636
0.14286 0.85714 0.13636
0.095238 0.90476 0.13636
0.26607 0.38928 0.13636
0.21845 0.4369 0.13636
0.17083 0.48452 0.13636
0.12321 0.53213 0.13636
0.075591 0.57975 0.13636
0.027972 0.62737 0.13636
0.98035 0.67499 0.13636
0.93273 0.72261 0.13636
0.88511 0.77023 0.13636
0.8375 0.81785 0.13636
0.78988 0.86547 0.13636
0.74226 0.91309 0.13636
0.69464 0.96071 0.13636
0.64702 0.0083248 0.13636
0.5994 0.055944 0.13636
0.55178 0.10356 0.13636
0.50416 0.15118 0.13636
0.45654 0.1988 0.13636
0.40892 0.24642 0.13636
0.36131 0.29404 0.13636
0.31369 0.34166 0.13636
0.56593 0.92033 0.5808
0.31593 0.92033 0.5808
0.56593 0.42033 0.5808
0.065925 0.92033 0.5808
0.31593 0.42033 0.5808
0.81593 0.92033 0.5808
0.065925 0.42033 0.5808
0.81593 0.42033 0.5808
0.68715 0.082214 0.69773
0.43715 0.082214 0.69773
0.68715 0.58221 0.69773
0.18715 0.082214 0.69773
0.43715 0.58221 0.69773
0.93715 0.082214 0.69773
0.18715 0.58221 0.69773
0.93715 0.58221 0.69773
0.062818 0.66722 0.69773
0.81282 0.66722 0.69773
0.062818 0.16722 0.69773
0.56282 0.66722 0.69773
0.81282 0.16722 0.69773
0.31282 0.66722 0.69773
0.56282 0.16722 0.69773
0.31282 0.16722 0.69773
0.43712 0.83164 0.5808
0.18712 0.83164 0.5808
0.43712 0.33164 0.5808
0.93712 0.83164 0.5808
0.18712 0.33164 0.5808
0.68712 0.83164 0.5808
0.93712 0.33164 0.5808
0.68712 0.33164 0.5808
