supercell_generated_POSCAR
1.0
-23.835 -36.279 0
15.168 -33.777 0
0 0 22
B N P C
250 250 352 524
Direct
0.096 0.008 0
0.028 0.044 0
0.192 0.016 0
0.124 0.052 0
0.056 0.088 0
0.288 0.024 0
0.22 0.06 0
0.152 0.096 0
0.084 0.132 0
0.016 0.168 0
0.452 0.996 0
0.384 0.032 0
0.316 0.068 0
0.248 0.104 0
0.18 0.14 0
0.112 0.176 0
0.044 0.212 0
0.548 0.004 0
0.48 0.04 0
0.412 0.076 0
0.344 0.112 0
0.276 0.148 0
0.208 0.184 0
0.14 0.22 0
0.072 0.256 0
0.644 0.012 0
0.576 0.048 0
0.508 0.084 0
0.44 0.12 0
0.372 0.156 0
0.304 0.192 0
0.236 0.228 0
0.168 0.264 0
0.1 0.3 0
0.032 0.336 0
0.74 0.02 0
0.672 0.056 0
0.604 0.092 0
0.536 0.128 0
0.468 0.164 0
0.4 0.2 0
0.332 0.236 0
0.264 0.272 0
0.196 0.308 0
0.128 0.344 0
0.06 0.38 0
0.904 0.992 0
0.836 0.028 0
0.768 0.064 0
0.7 0.1 0
0.632 0.136 0
0.564 0.172 0
0.496 0.208 0
0.428 0.244 0
0.36 0.28 0
0.292 0.316 0
0.224 0.352 0
0.156 0.388 0
0.088 0.424 0
0.02 0.46 0
0 0 0
0.932 0.036 0
0.864 0.072 0
0.796 0.108 0
0.728 0.144 0
0.66 0.18 0
0.592 0.216 0
0.524 0.252 0
0.456 0.288 0
0.388 0.324 0
0.32 0.36 0
0.252 0.396 0
0.184 0.432 0
0.116 0.468 0
0.048 0.504 0
0.96 0.08 0
0.892 0.116 0
0.824 0.152 0
0.756 0.188 0
0.688 0.224 0
0.62 0.26 0
0.552 0.296 0
0.484 0.332 0
0.416 0.368 0
0.348 0.404 0
0.28 0.44 0
0.212 0.476 0
0.144 0.512 0
0.076 0.548 0
0.988 0.124 0
0.92 0.16 0
0.852 0.196 0
0.784 0.232 0
0.716 0.268 0
0.648 0.304 0
0.58 0.34 0
0.512 0.376 0
0.444 0.412 0
0.376 0.448 0
0.308 0.484 0
0.24 0.52 0
0.172 0.556 0
0.104 0.592 0
0.036 0.628 0
0.948 0.204 0
0.88 0.24 0
0.812 0.276 0
0.744 0.312 0
0.676 0.348 0
0.608 0.384 0
0.54 0.42 0
0.472 0.456 0
0.404 0.492 0
0.336 0.528 0
0.268 0.564 0
0.2 0.6 0
0.132 0.636 0
0.064 0.672 0
0.976 0.248 0
0.908 0.284 0
0.84 0.32 0
0.772 0.356 0
0.704 0.392 0
0.636 0.428 0
0.568 0.464 0
0.5 0.5 0
0.432 0.536 0
0.364 0.572 0
0.296 0.608 0
0.228 0.644 0
0.16 0.68 0
0.092 0.716 0
0.024 0.752 0
0.004 0.292 0
0.936 0.328 0
0.868 0.364 0
0.8 0.4 0
0.732 0.436 0
0.664 0.472 0
0.596 0.508 0
0.528 0.544 0
0.46 0.58 0
0.392 0.616 0
0.324 0.652 0
0.256 0.688 0
0.188 0.724 0
0.12 0.76 0
0.052 0.796 0
0.964 0.372 0
0.896 0.408 0
0.828 0.444 0
0.76 0.48 0
0.692 0.516 0
0.624 0.552 0
0.556 0.588 0
0.488 0.624 0
0.42 0.66 0
0.352 0.696 0
0.284 0.732 0
0.216 0.768 0
0.148 0.804 0
0.08 0.84 0
0.012 0.876 0
0.992 0.416 0
0.924 0.452 0
0.856 0.488 0
0.788 0.524 0
0.72 0.56 0
0.652 0.596 0
0.584 0.632 0
0.516 0.668 0
0.448 0.704 0
0.38 0.74 0
0.312 0.776 0
0.244 0.812 0
0.176 0.848 0
0.108 0.884 0
0.04 0.92 0
0.952 0.496 0
0.884 0.532 0
0.816 0.568 0
0.748 0.604 0
0.68 0.64 0
0.612 0.676 0
0.544 0.712 0
0.476 0.748 0
0.408 0.784 0
0.34 0.82 0
0.272 0.856 0
0.204 0.892 0
0.136 0.928 0
0.068 0.964 0
0.98 0.54 0
0.912 0.576 0
0.844 0.612 0
0.776 0.648 0
0.708 0.684 0
0.64 0.72 0
0.572 0.756 0
0.504 0.792 0
0.436 0.828 0
0.368 0.864 0
0.3 0.9 0
0.232 0.936 0
0.164 0.972 0
0.008 0.584 0
0.94 0.62 0
0.872 0.656 0
0.804 0.692 0
0.736 0.728 0
0.668 0.764 0
0.6 0.8 0
0.532 0.836 0
0.464 0.872 0
0.396 0.908 0
0.328 0.944 0
0.26 0.98 0
0.968 0.664 0
0.9 0.7 0
0.832 0.736 0
0.764 0.772 0
0.696 0.808 0
0.628 0.844 0
0.56 0.88 0
0.492 0.916 0
0.424 0.952 0
0.356 0.988 0
0.996 0.708 0
0.928 0.744 0
0.86 0.78 0
0.792 0.816 0
0.724 0.852 0
0.656 0.888 0
0.588 0.924 0
0.52 0.96 0
0.956 0.788 0
0.888 0.824 0
0.82 0.86 0
0.752 0.896 0
0.684 0.932 0
0.616 0.968 0
0.984 0.832 0
0.916 0.868 0
0.848 0.904 0
0.78 0.94 0
0.712 0.976 0
0.944 0.912 0
0.876 0.948 0
0.808 0.984 0
0.972 0.956 0
0.024 0.085333 0
0.956 0.12133 0
0.12 0.093333 0
0.052 0.12933 0
0.984 0.16533 0
0.216 0.10133 0
0.148 0.13733 0
0.08 0.17333 0
0.012 0.20933 0
0.944 0.24533 0
0.38 0.073333 0
0.312 0.10933 0
0.244 0.14533 0
0.176 0.18133 0
0.108 0.21733 0
0.04 0.25333 0
0.972 0.28933 0
0.476 0.081333 0
0.408 0.11733 0
0.34 0.15333 0
0.272 0.18933 0
0.204 0.22533 0
0.136 0.26133 0
0.068 0.29733 0
1 0.33333 0
0.572 0.089333 0
0.504 0.12533 0
0.436 0.16133 0
0.368 0.19733 0
0.3 0.23333 0
0.232 0.26933 0
0.164 0.30533 0
0.096 0.34133 0
0.028 0.37733 0
0.96 0.41333 0
0.668 0.097333 0
0.6 0.13333 0
0.532 0.16933 0
0.464 0.20533 0
0.396 0.24133 0
0.328 0.27733 0
0.26 0.31333 0
0.192 0.34933 0
0.124 0.38533 0
0.056 0.42133 0
0.988 0.45733 0
0.832 0.069333 0
0.764 0.10533 0
0.696 0.14133 0
0.628 0.17733 0
0.56 0.21333 0
0.492 0.24933 0
0.424 0.28533 0
0.356 0.32133 0
0.288 0.35733 0
0.22 0.39333 0
0.152 0.42933 0
0.084 0.46533 0
0.016 0.50133 0
0.948 0.53733 0
0.928 0.077333 0
0.86 0.11333 0
0.792 0.14933 0
0.724 0.18533 0
0.656 0.22133 0
0.588 0.25733 0
0.52 0.29333 0
0.452 0.32933 0
0.384 0.36533 0
0.316 0.40133 0
0.248 0.43733 0
0.18 0.47333 0
0.112 0.50933 0
0.044 0.54533 0
0.976 0.58133 0
0.888 0.15733 0
0.82 0.19333 0
0.752 0.22933 0
0.684 0.26533 0
0.616 0.30133 0
0.548 0.33733 0
0.48 0.37333 0
0.412 0.40933 0
0.344 0.44533 0
0.276 0.48133 0
0.208 0.51733 0
0.14 0.55333 0
0.072 0.58933 0
0.004 0.62533 0
0.916 0.20133 0
0.848 0.23733 0
0.78 0.27333 0
0.712 0.30933 0
0.644 0.34533 0
0.576 0.38133 0
0.508 0.41733 0
0.44 0.45333 0
0.372 0.48933 0
0.304 0.52533 0
0.236 0.56133 0
0.168 0.59733 0
0.1 0.63333 0
0.032 0.66933 0
0.964 0.70533 0
0.876 0.28133 0
0.808 0.31733 0
0.74 0.35333 0
0.672 0.38933 0
0.604 0.42533 0
0.536 0.46133 0
0.468 0.49733 0
0.4 0.53333 0
0.332 0.56933 0
0.264 0.60533 0
0.196 0.64133 0
0.128 0.67733 0
0.06 0.71333 0
0.992 0.74933 0
0.904 0.32533 0
0.836 0.36133 0
0.768 0.39733 0
0.7 0.43333 0
0.632 0.46933 0
0.564 0.50533 0
0.496 0.54133 0
0.428 0.57733 0
0.36 0.61333 0
0.292 0.64933 0
0.224 0.68533 0
0.156 0.72133 0
0.088 0.75733 0
0.02 0.79333 0
0.952 0.82933 0
0.932 0.36933 0
0.864 0.40533 0
0.796 0.44133 0
0.728 0.47733 0
0.66 0.51333 0
0.592 0.54933 0
0.524 0.58533 0
0.456 0.62133 0
0.388 0.65733 0
0.32 0.69333 0
0.252 0.72933 0
0.184 0.76533 0
0.116 0.80133 0
0.048 0.83733 0
0.98 0.87333 0
0.892 0.44933 0
0.824 0.48533 0
0.756 0.52133 0
0.688 0.55733 0
0.62 0.59333 0
0.552 0.62933 0
0.484 0.66533 0
0.416 0.70133 0
0.348 0.73733 0
0.28 0.77333 0
0.212 0.80933 0
0.144 0.84533 0
0.076 0.88133 0
0.008 0.91733 0
0.94 0.95333 0
0.92 0.49333 0
0.852 0.52933 0
0.784 0.56533 0
0.716 0.60133 0
0.648 0.63733 0
0.58 0.67333 0
0.512 0.70933 0
0.444 0.74533 0
0.376 0.78133 0
0.308 0.81733 0
0.24 0.85333 0
0.172 0.88933 0
0.104 0.92533 0
0.036 0.96133 0
0.968 0.99733 0
0.88 0.57333 0
0.812 0.60933 0
0.744 0.64533 0
0.676 0.68133 0
0.608 0.71733 0
0.54 0.75333 0
0.472 0.78933 0
0.404 0.82533 0
0.336 0.86133 0
0.268 0.89733 0
0.2 0.93333 0
0.132 0.96933 0
0.064 0.0053333 0
0.996 0.041333 0
0.908 0.61733 0
0.84 0.65333 0
0.772 0.68933 0
0.704 0.72533 0
0.636 0.76133 0
0.568 0.79733 0
0.5 0.83333 0
0.432 0.86933 0
0.364 0.90533 0
0.296 0.94133 0
0.228 0.97733 0
0.16 0.013333 0
0.092 0.049333 0
0.936 0.66133 0
0.868 0.69733 0
0.8 0.73333 0
0.732 0.76933 0
0.664 0.80533 0
0.596 0.84133 0
0.528 0.87733 0
0.46 0.91333 0
0.392 0.94933 0
0.324 0.98533 0
0.256 0.021333 0
0.188 0.057333 0
0.896 0.74133 0
0.828 0.77733 0
0.76 0.81333 0
0.692 0.84933 0
0.624 0.88533 0
0.556 0.92133 0
0.488 0.95733 0
0.42 0.99333 0
0.352 0.029333 0
0.284 0.065333 0
0.924 0.78533 0
0.856 0.82133 0
0.788 0.85733 0
0.72 0.89333 0
0.652 0.92933 0
0.584 0.96533 0
0.516 0.0013333 0
0.448 0.037333 0
0.884 0.86533 0
0.816 0.90133 0
0.748 0.93733 0
0.68 0.97333 0
0.612 0.0093333 0
0.544 0.045333 0
0.912 0.90933 0
0.844 0.94533 0
0.776 0.98133 0
0.708 0.017333 0
0.64 0.053333 0
0.872 0.98933 0
0.804 0.025333 0
0.736 0.061333 0
0.9 0.033333 0
0.97596 0.20119 0.53535
0.9343 0.11786 0.53535
0.89263 0.034523 0.53535
0.97596 0.45119 0.53535
0.9343 0.36786 0.53535
0.89263 0.28452 0.53535
0.85096 0.20119 0.53535
0.8093 0.11786 0.53535
0.76763 0.034523 0.53535
0.97596 0.70119 0.53535
0.9343 0.61786 0.53535
0.89263 0.53452 0.53535
0.85096 0.45119 0.53535
0.8093 0.36786 0.53535
0.76763 0.28452 0.53535
0.72596 0.20119 0.53535
0.6843 0.11786 0.53535
0.64263 0.034523 0.53535
0.9343 0.86786 0.53535
0.89263 0.78452 0.53535
0.85096 0.70119 0.53535
0.8093 0.61786 0.53535
0.76763 0.53452 0.53535
0.72596 0.45119 0.53535
0.6843 0.36786 0.53535
0.64263 0.28452 0.53535
0.60096 0.20119 0.53535
0.5593 0.11786 0.53535
0.51763 0.034523 0.53535
0.8093 0.86786 0.53535
0.76763 0.78452 0.53535
0.72596 0.70119 0.53535
0.6843 0.61786 0.53535
0.64263 0.53452 0.53535
0.60096 0.45119 0.53535
0.5593 0.36786 0.53535
0.51763 0.28452 0.53535
0.47596 0.20119 0.53535
0.4343 0.11786 0.53535
0.39263 0.034523 0.53535
0.6843 0.86786 0.53535
0.64263 0.78452 0.53535
0.60096 0.70119 0.53535
0.5593 0.61786 0.53535
0.51763 0.53452 0.53535
0.47596 0.45119 0.53535
0.4343 0.36786 0.53535
0.39263 0.28452 0.53535
0.35096 0.20119 0.53535
0.3093 0.11786 0.53535
0.26763 0.034523 0.53535
0.5593 0.86786 0.53535
0.51763 0.78452 0.53535
0.47596 0.70119 0.53535
0.4343 0.61786 0.53535
0.39263 0.53452 0.53535
0.35096 0.45119 0.53535
0.3093 0.36786 0.53535
0.26763 0.28452 0.53535
0.22596 0.20119 0.53535
0.1843 0.11786 0.53535
0.14263 0.034523 0.53535
0.4343 0.86786 0.53535
0.39263 0.78452 0.53535
0.35096 0.70119 0.53535
0.3093 0.61786 0.53535
0.26763 0.53452 0.53535
0.22596 0.45119 0.53535
0.1843 0.36786 0.53535
0.14263 0.28452 0.53535
0.10096 0.20119 0.53535
0.059296 0.11786 0.53535
0.01763 0.034523 0.53535
0.3093 0.86786 0.53535
0.26763 0.78452 0.53535
0.22596 0.70119 0.53535
0.1843 0.61786 0.53535
0.14263 0.53452 0.53535
0.10096 0.45119 0.53535
0.059296 0.36786 0.53535
0.01763 0.28452 0.53535
0.1843 0.86786 0.53535
0.14263 0.78452 0.53535
0.10096 0.70119 0.53535
0.059296 0.61786 0.53535
0.01763 0.53452 0.53535
0.059296 0.86786 0.53535
0.01763 0.78452 0.53535
0.98268 0.21482 0.65227
0.94101 0.13149 0.65227
0.89934 0.048154 0.65227
0.98268 0.46482 0.65227
0.94101 0.38149 0.65227
0.89934 0.29815 0.65227
0.85768 0.21482 0.65227
0.81601 0.13149 0.65227
0.77434 0.048154 0.65227
0.98268 0.71482 0.65227
0.94101 0.63149 0.65227
0.89934 0.54815 0.65227
0.85768 0.46482 0.65227
0.81601 0.38149 0.65227
0.77434 0.29815 0.65227
0.73268 0.21482 0.65227
0.69101 0.13149 0.65227
0.64934 0.048154 0.65227
0.94101 0.88149 0.65227
0.89934 0.79815 0.65227
0.85768 0.71482 0.65227
0.81601 0.63149 0.65227
0.77434 0.54815 0.65227
0.73268 0.46482 0.65227
0.69101 0.38149 0.65227
0.64934 0.29815 0.65227
0.60768 0.21482 0.65227
0.56601 0.13149 0.65227
0.52434 0.048154 0.65227
0.81601 0.88149 0.65227
0.77434 0.79815 0.65227
0.73268 0.71482 0.65227
0.69101 0.63149 0.65227
0.64934 0.54815 0.65227
0.60768 0.46482 0.65227
0.56601 0.38149 0.65227
0.52434 0.29815 0.65227
0.48268 0.21482 0.65227
0.44101 0.13149 0.65227
0.39934 0.048154 0.65227
0.69101 0.88149 0.65227
0.64934 0.79815 0.65227
0.60768 0.71482 0.65227
0.56601 0.63149 0.65227
0.52434 0.54815 0.65227
0.48268 0.46482 0.65227
0.44101 0.38149 0.65227
0.39934 0.29815 0.65227
0.35768 0.21482 0.65227
0.31601 0.13149 0.65227
0.27434 0.048154 0.65227
0.56601 0.88149 0.65227
0.52434 0.79815 0.65227
0.48268 0.71482 0.65227
0.44101 0.63149 0.65227
0.39934 0.54815 0.65227
0.35768 0.46482 0.65227
0.31601 0.38149 0.65227
0.27434 0.29815 0.65227
0.23268 0.21482 0.65227
0.19101 0.13149 0.65227
0.14934 0.048154 0.65227
0.44101 0.88149 0.65227
0.39934 0.79815 0.65227
0.35768 0.71482 0.65227
0.31601 0.63149 0.65227
0.27434 0.54815 0.65227
0.23268 0.46482 0.65227
0.19101 0.38149 0.65227
0.14934 0.29815 0.65227
0.10768 0.21482 0.65227
0.066009 0.13149 0.65227
0.024343 0.048154 0.65227
0.31601 0.88149 0.65227
0.27434 0.79815 0.65227
0.23268 0.71482 0.65227
0.19101 0.63149 0.65227
0.14934 0.54815 0.65227
0.10768 0.46482 0.65227
0.066009 0.38149 0.65227
0.024343 0.29815 0.65227
0.19101 0.88149 0.65227
0.14934 0.79815 0.65227
0.10768 0.71482 0.65227
0.066009 0.63149 0.65227
0.024343 0.54815 0.65227
0.066009 0.88149 0.65227
0.024343 0.79815 0.65227
0.9549 0.28482 0.65227
0.91323 0.20149 0.65227
0.87157 0.11815 0.65227
0.9549 0.53482 0.65227
0.91323 0.45149 0.65227
0.87157 0.36815 0.65227
0.8299 0.28482 0.65227
0.78823 0.20149 0.65227
0.74657 0.11815 0.65227
0.9549 0.78482 0.65227
0.91323 0.70149 0.65227
0.87157 0.61815 0.65227
0.8299 0.53482 0.65227
0.78823 0.45149 0.65227
0.74657 0.36815 0.65227
0.7049 0.28482 0.65227
0.66323 0.20149 0.65227
0.62157 0.11815 0.65227
0.91323 0.95149 0.65227
0.87157 0.86815 0.65227
0.8299 0.78482 0.65227
0.78823 0.70149 0.65227
0.74657 0.61815 0.65227
0.7049 0.53482 0.65227
0.66323 0.45149 0.65227
0.62157 0.36815 0.65227
0.5799 0.28482 0.65227
0.53823 0.20149 0.65227
0.49657 0.11815 0.65227
0.78823 0.95149 0.65227
0.74657 0.86815 0.65227
0.7049 0.78482 0.65227
0.66323 0.70149 0.65227
0.62157 0.61815 0.65227
0.5799 0.53482 0.65227
0.53823 0.45149 0.65227
0.49657 0.36815 0.65227
0.4549 0.28482 0.65227
0.41323 0.20149 0.65227
0.37157 0.11815 0.65227
0.66323 0.95149 0.65227
0.62157 0.86815 0.65227
0.5799 0.78482 0.65227
0.53823 0.70149 0.65227
0.49657 0.61815 0.65227
0.4549 0.53482 0.65227
0.41323 0.45149 0.65227
0.37157 0.36815 0.65227
0.3299 0.28482 0.65227
0.28823 0.20149 0.65227
0.24657 0.11815 0.65227
0.53823 0.95149 0.65227
0.49657 0.86815 0.65227
0.4549 0.78482 0.65227
0.41323 0.70149 0.65227
0.37157 0.61815 0.65227
0.3299 0.53482 0.65227
0.28823 0.45149 0.65227
0.24657 0.36815 0.65227
0.2049 0.28482 0.65227
0.16323 0.20149 0.65227
0.12157 0.11815 0.65227
0.41323 0.95149 0.65227
0.37157 0.86815 0.65227
0.3299 0.78482 0.65227
0.28823 0.70149 0.65227
0.24657 0.61815 0.65227
0.2049 0.53482 0.65227
0.16323 0.45149 0.65227
0.12157 0.36815 0.65227
0.0799 0.28482 0.65227
0.038234 0.20149 0.65227
0.99657 0.11815 0.65227
0.28823 0.95149 0.65227
0.24657 0.86815 0.65227
0.2049 0.78482 0.65227
0.16323 0.70149 0.65227
0.12157 0.61815 0.65227
0.0799 0.53482 0.65227
0.038234 0.45149 0.65227
0.99657 0.36815 0.65227
0.16323 0.95149 0.65227
0.12157 0.86815 0.65227
0.0799 0.78482 0.65227
0.038234 0.70149 0.65227
0.99657 0.61815 0.65227
0.038234 0.95149 0.65227
0.99657 0.86815 0.65227
0.92025 0.21446 0.53535
0.87859 0.13113 0.53535
0.83692 0.047796 0.53535
0.92025 0.46446 0.53535
0.87859 0.38113 0.53535
0.83692 0.2978 0.53535
0.79525 0.21446 0.53535
0.75359 0.13113 0.53535
0.71192 0.047796 0.53535
0.92025 0.71446 0.53535
0.87859 0.63113 0.53535
0.83692 0.5478 0.53535
0.79525 0.46446 0.53535
0.75359 0.38113 0.53535
0.71192 0.2978 0.53535
0.67025 0.21446 0.53535
0.62859 0.13113 0.53535
0.58692 0.047796 0.53535
0.87859 0.88113 0.53535
0.83692 0.7978 0.53535
0.79525 0.71446 0.53535
0.75359 0.63113 0.53535
0.71192 0.5478 0.53535
0.67025 0.46446 0.53535
0.62859 0.38113 0.53535
0.58692 0.2978 0.53535
0.54525 0.21446 0.53535
0.50359 0.13113 0.53535
0.46192 0.047796 0.53535
0.75359 0.88113 0.53535
0.71192 0.7978 0.53535
0.67025 0.71446 0.53535
0.62859 0.63113 0.53535
0.58692 0.5478 0.53535
0.54525 0.46446 0.53535
0.50359 0.38113 0.53535
0.46192 0.2978 0.53535
0.42025 0.21446 0.53535
0.37859 0.13113 0.53535
0.33692 0.047796 0.53535
0.62859 0.88113 0.53535
0.58692 0.7978 0.53535
0.54525 0.71446 0.53535
0.50359 0.63113 0.53535
0.46192 0.5478 0.53535
0.42025 0.46446 0.53535
0.37859 0.38113 0.53535
0.33692 0.2978 0.53535
0.29525 0.21446 0.53535
0.25359 0.13113 0.53535
0.21192 0.047796 0.53535
0.50359 0.88113 0.53535
0.46192 0.7978 0.53535
0.42025 0.71446 0.53535
0.37859 0.63113 0.53535
0.33692 0.5478 0.53535
0.29525 0.46446 0.53535
0.25359 0.38113 0.53535
0.21192 0.2978 0.53535
0.17025 0.21446 0.53535
0.12859 0.13113 0.53535
0.086919 0.047796 0.53535
0.37859 0.88113 0.53535
0.33692 0.7978 0.53535
0.29525 0.71446 0.53535
0.25359 0.63113 0.53535
0.21192 0.5478 0.53535
0.17025 0.46446 0.53535
0.12859 0.38113 0.53535
0.086919 0.2978 0.53535
0.045252 0.21446 0.53535
0.0035852 0.13113 0.53535
0.96192 0.047796 0.53535
0.25359 0.88113 0.53535
0.21192 0.7978 0.53535
0.17025 0.71446 0.53535
0.12859 0.63113 0.53535
0.086919 0.5478 0.53535
0.045252 0.46446 0.53535
0.0035852 0.38113 0.53535
0.96192 0.2978 0.53535
0.12859 0.88113 0.53535
0.086919 0.7978 0.53535
0.045252 0.71446 0.53535
0.0035852 0.63113 0.53535
0.96192 0.5478 0.53535
0.0035852 0.88113 0.53535
0.96192 0.7978 0.53535
0.37405 0.99237 0.95455
0.31298 0.0038168 0.95455
0.25191 0.015267 0.95455
0.19084 0.026718 0.95455
0.12977 0.038168 0.95455
0.068702 0.049618 0.95455
0.68702 0.99618 0.95455
0.62595 0.0076336 0.95455
0.56489 0.019084 0.95455
0.50382 0.030534 0.95455
0.44275 0.041985 0.95455
0.38168 0.053435 0.95455
0.32061 0.064885 0.95455
0.25954 0.076336 0.95455
0.19847 0.087786 0.95455
0.1374 0.099237 0.95455
0.076336 0.11069 0.95455
0.015267 0.12214 0.95455
1 1 0.95455
0.93893 0.01145 0.95455
0.87786 0.022901 0.95455
0.81679 0.034351 0.95455
0.75573 0.045802 0.95455
0.69466 0.057252 0.95455
0.63359 0.068702 0.95455
0.57252 0.080153 0.95455
0.51145 0.091603 0.95455
0.45038 0.10305 0.95455
0.38931 0.1145 0.95455
0.32824 0.12595 0.95455
0.26718 0.1374 0.95455
0.20611 0.14885 0.95455
0.14504 0.16031 0.95455
0.083969 0.17176 0.95455
0.022901 0.18321 0.95455
0.0076336 0.061069 0.95455
0.94656 0.072519 0.95455
0.8855 0.083969 0.95455
0.82443 0.09542 0.95455
0.76336 0.10687 0.95455
0.70229 0.11832 0.95455
0.64122 0.12977 0.95455
0.58015 0.14122 0.95455
0.51908 0.15267 0.95455
0.45802 0.16412 0.95455
0.39695 0.17557 0.95455
0.33588 0.18702 0.95455
0.27481 0.19847 0.95455
0.21374 0.20992 0.95455
0.15267 0.22137 0.95455
0.091603 0.23282 0.95455
0.030534 0.24427 0.95455
0.9542 0.13359 0.95455
0.89313 0.14504 0.95455
0.83206 0.15649 0.95455
0.77099 0.16794 0.95455
0.70992 0.17939 0.95455
0.64885 0.19084 0.95455
0.58779 0.20229 0.95455
0.52672 0.21374 0.95455
0.46565 0.22519 0.95455
0.40458 0.23664 0.95455
0.34351 0.24809 0.95455
0.28244 0.25954 0.95455
0.22137 0.27099 0.95455
0.16031 0.28244 0.95455
0.099237 0.29389 0.95455
0.038168 0.30534 0.95455
0.96183 0.19466 0.95455
0.90076 0.20611 0.95455
0.83969 0.21756 0.95455
0.77863 0.22901 0.95455
0.71756 0.24046 0.95455
0.65649 0.25191 0.95455
0.59542 0.26336 0.95455
0.53435 0.27481 0.95455
0.47328 0.28626 0.95455
0.41221 0.29771 0.95455
0.35115 0.30916 0.95455
0.29008 0.32061 0.95455
0.22901 0.33206 0.95455
0.16794 0.34351 0.95455
0.10687 0.35496 0.95455
0.045802 0.36641 0.95455
0.96947 0.25573 0.95455
0.9084 0.26718 0.95455
0.84733 0.27863 0.95455
0.78626 0.29008 0.95455
0.72519 0.30153 0.95455
0.66412 0.31298 0.95455
0.60305 0.32443 0.95455
0.54198 0.33588 0.95455
0.48092 0.34733 0.95455
0.41985 0.35878 0.95455
0.35878 0.37023 0.95455
0.29771 0.38168 0.95455
0.23664 0.39313 0.95455
0.17557 0.40458 0.95455
0.1145 0.41603 0.95455
0.053435 0.42748 0.95455
0.9771 0.31679 0.95455
0.91603 0.32824 0.95455
0.85496 0.33969 0.95455
0.79389 0.35115 0.95455
0.73282 0.3626 0.95455
0.67176 0.37405 0.95455
0.61069 0.3855 0.95455
0.54962 0.39695 0.95455
0.48855 0.4084 0.95455
0.42748 0.41985 0.95455
0.36641 0.4313 0.95455
0.30534 0.44275 0.95455
0.24427 0.4542 0.95455
0.18321 0.46565 0.95455
0.12214 0.4771 0.95455
0.061069 0.48855 0.95455
0.98473 0.37786 0.95455
0.92366 0.38931 0.95455
0.8626 0.40076 0.95455
0.80153 0.41221 0.95455
0.74046 0.42366 0.95455
0.67939 0.43511 0.95455
0.61832 0.44656 0.95455
0.55725 0.45802 0.95455
0.49618 0.46947 0.95455
0.43511 0.48092 0.95455
0.37405 0.49237 0.95455
0.31298 0.50382 0.95455
0.25191 0.51527 0.95455
0.19084 0.52672 0.95455
0.12977 0.53817 0.95455
0.068702 0.54962 0.95455
0.99237 0.43893 0.95455
0.9313 0.45038 0.95455
0.87023 0.46183 0.95455
0.80916 0.47328 0.95455
0.74809 0.48473 0.95455
0.68702 0.49618 0.95455
0.62595 0.50763 0.95455
0.56489 0.51908 0.95455
0.50382 0.53053 0.95455
0.44275 0.54198 0.95455
0.38168 0.55344 0.95455
0.32061 0.56489 0.95455
0.25954 0.57634 0.95455
0.19847 0.58779 0.95455
0.1374 0.59924 0.95455
0.076336 0.61069 0.95455
0.015267 0.62214 0.95455
1 0.5 0.95455
0.93893 0.51145 0.95455
0.87786 0.5229 0.95455
0.81679 0.53435 0.95455
0.75573 0.5458 0.95455
0.69466 0.55725 0.95455
0.63359 0.5687 0.95455
0.57252 0.58015 0.95455
0.51145 0.5916 0.95455
0.45038 0.60305 0.95455
0.38931 0.6145 0.95455
0.32824 0.62595 0.95455
0.26718 0.6374 0.95455
0.20611 0.64885 0.95455
0.14504 0.66031 0.95455
0.083969 0.67176 0.95455
0.022901 0.68321 0.95455
0.0076336 0.56107 0.95455
0.94656 0.57252 0.95455
0.8855 0.58397 0.95455
0.82443 0.59542 0.95455
0.76336 0.60687 0.95455
0.70229 0.61832 0.95455
0.64122 0.62977 0.95455
0.58015 0.64122 0.95455
0.51908 0.65267 0.95455
0.45802 0.66412 0.95455
0.39695 0.67557 0.95455
0.33588 0.68702 0.95455
0.27481 0.69847 0.95455
0.21374 0.70992 0.95455
0.15267 0.72137 0.95455
0.091603 0.73282 0.95455
0.030534 0.74427 0.95455
0.9542 0.63359 0.95455
0.89313 0.64504 0.95455
0.83206 0.65649 0.95455
0.77099 0.66794 0.95455
0.70992 0.67939 0.95455
0.64885 0.69084 0.95455
0.58779 0.70229 0.95455
0.52672 0.71374 0.95455
0.46565 0.72519 0.95455
0.40458 0.73664 0.95455
0.34351 0.74809 0.95455
0.28244 0.75954 0.95455
0.22137 0.77099 0.95455
0.16031 0.78244 0.95455
0.099237 0.79389 0.95455
0.038168 0.80534 0.95455
0.96183 0.69466 0.95455
0.90076 0.70611 0.95455
0.83969 0.71756 0.95455
0.77863 0.72901 0.95455
0.71756 0.74046 0.95455
0.65649 0.75191 0.95455
0.59542 0.76336 0.95455
0.53435 0.77481 0.95455
0.47328 0.78626 0.95455
0.41221 0.79771 0.95455
0.35115 0.80916 0.95455
0.29008 0.82061 0.95455
0.22901 0.83206 0.95455
0.16794 0.84351 0.95455
0.10687 0.85496 0.95455
0.045802 0.86641 0.95455
0.96947 0.75573 0.95455
0.9084 0.76718 0.95455
0.84733 0.77863 0.95455
0.78626 0.79008 0.95455
0.72519 0.80153 0.95455
0.66412 0.81298 0.95455
0.60305 0.82443 0.95455
0.54198 0.83588 0.95455
0.48092 0.84733 0.95455
0.41985 0.85878 0.95455
0.35878 0.87023 0.95455
0.29771 0.88168 0.95455
0.23664 0.89313 0.95455
0.17557 0.90458 0.95455
0.1145 0.91603 0.95455
0.053435 0.92748 0.95455
0.9771 0.81679 0.95455
0.91603 0.82824 0.95455
0.85496 0.83969 0.95455
0.79389 0.85115 0.95455
0.73282 0.8626 0.95455
0.67176 0.87405 0.95455
0.61069 0.8855 0.95455
0.54962 0.89695 0.95455
0.48855 0.9084 0.95455
0.42748 0.91985 0.95455
0.36641 0.9313 0.95455
0.30534 0.94275 0.95455
0.24427 0.9542 0.95455
0.18321 0.96565 0.95455
0.12214 0.9771 0.95455
0.061069 0.98855 0.95455
0.98473 0.87786 0.95455
0.92366 0.88931 0.95455
0.8626 0.90076 0.95455
0.80153 0.91221 0.95455
0.74046 0.92366 0.95455
0.67939 0.93511 0.95455
0.61832 0.94656 0.95455
0.55725 0.95802 0.95455
0.49618 0.96947 0.95455
0.43511 0.98092 0.95455
0.99237 0.93893 0.95455
0.9313 0.95038 0.95455
0.87023 0.96183 0.95455
0.80916 0.97328 0.95455
0.74809 0.98473 0.95455
0.2969 0.049108 0.95455
0.23583 0.060559 0.95455
0.17476 0.072009 0.95455
0.11369 0.083459 0.95455
0.052622 0.09491 0.95455
0.99155 0.10636 0.95455
0.60987 0.052925 0.95455
0.54881 0.064375 0.95455
0.48774 0.075826 0.95455
0.42667 0.087276 0.95455
0.3656 0.098726 0.95455
0.30453 0.11018 0.95455
0.24346 0.12163 0.95455
0.18239 0.13308 0.95455
0.12132 0.14453 0.95455
0.060256 0.15598 0.95455
0.99919 0.16743 0.95455
0.93812 0.17888 0.95455
0.92285 0.056742 0.95455
0.86178 0.068192 0.95455
0.80071 0.079642 0.95455
0.73964 0.091093 0.95455
0.67858 0.10254 0.95455
0.61751 0.11399 0.95455
0.55644 0.12544 0.95455
0.49537 0.13689 0.95455
0.4343 0.14834 0.95455
0.37323 0.1598 0.95455
0.31216 0.17125 0.95455
0.2511 0.1827 0.95455
0.19003 0.19415 0.95455
0.12896 0.2056 0.95455
0.067889 0.21705 0.95455
0.0068205 0.2285 0.95455
0.94575 0.23995 0.95455
0.93048 0.11781 0.95455
0.86942 0.12926 0.95455
0.80835 0.14071 0.95455
0.74728 0.15216 0.95455
0.68621 0.16361 0.95455
0.62514 0.17506 0.95455
0.56407 0.18651 0.95455
0.503 0.19796 0.95455
0.44194 0.20941 0.95455
0.38087 0.22086 0.95455
0.3198 0.23231 0.95455
0.25873 0.24376 0.95455
0.19766 0.25521 0.95455
0.13659 0.26667 0.95455
0.075523 0.27812 0.95455
0.014454 0.28957 0.95455
0.95339 0.30102 0.95455
0.87705 0.19033 0.95455
0.81598 0.20178 0.95455
0.75491 0.21323 0.95455
0.69384 0.22468 0.95455
0.63277 0.23613 0.95455
0.57171 0.24758 0.95455
0.51064 0.25903 0.95455
0.44957 0.27048 0.95455
0.3885 0.28193 0.95455
0.32743 0.29338 0.95455
0.26636 0.30483 0.95455
0.20529 0.31628 0.95455
0.14423 0.32773 0.95455
0.083156 0.33918 0.95455
0.022088 0.35063 0.95455
0.96102 0.36209 0.95455
0.88468 0.2514 0.95455
0.82361 0.26285 0.95455
0.76255 0.2743 0.95455
0.70148 0.28575 0.95455
0.64041 0.2972 0.95455
0.57934 0.30865 0.95455
0.51827 0.3201 0.95455
0.4572 0.33155 0.95455
0.39613 0.343 0.95455
0.33506 0.35445 0.95455
0.274 0.3659 0.95455
0.21293 0.37735 0.95455
0.15186 0.3888 0.95455
0.09079 0.40025 0.95455
0.029721 0.4117 0.95455
0.96865 0.42315 0.95455
0.89232 0.31247 0.95455
0.83125 0.32392 0.95455
0.77018 0.33537 0.95455
0.70911 0.34682 0.95455
0.64804 0.35827 0.95455
0.58697 0.36972 0.95455
0.5259 0.38117 0.95455
0.46484 0.39262 0.95455
0.40377 0.40407 0.95455
0.3427 0.41552 0.95455
0.28163 0.42697 0.95455
0.22056 0.43842 0.95455
0.15949 0.44987 0.95455
0.098424 0.46132 0.95455
0.037355 0.47277 0.95455
0.97629 0.48422 0.95455
0.89995 0.37354 0.95455
0.83888 0.38499 0.95455
0.77781 0.39644 0.95455
0.71674 0.40789 0.95455
0.65568 0.41934 0.95455
0.59461 0.43079 0.95455
0.53354 0.44224 0.95455
0.47247 0.45369 0.95455
0.4114 0.46514 0.95455
0.35033 0.47659 0.95455
0.28926 0.48804 0.95455
0.22819 0.49949 0.95455
0.16713 0.51094 0.95455
0.10606 0.52239 0.95455
0.044988 0.53384 0.95455
0.98392 0.54529 0.95455
0.90758 0.4346 0.95455
0.84652 0.44605 0.95455
0.78545 0.45751 0.95455
0.72438 0.46896 0.95455
0.66331 0.48041 0.95455
0.60224 0.49186 0.95455
0.54117 0.50331 0.95455
0.4801 0.51476 0.95455
0.41903 0.52621 0.95455
0.35797 0.53766 0.95455
0.2969 0.54911 0.95455
0.23583 0.56056 0.95455
0.17476 0.57201 0.95455
0.11369 0.58346 0.95455
0.052622 0.59491 0.95455
0.99155 0.60636 0.95455
0.91522 0.49567 0.95455
0.85415 0.50712 0.95455
0.79308 0.51857 0.95455
0.73201 0.53002 0.95455
0.67094 0.54147 0.95455
0.60987 0.55292 0.95455
0.54881 0.56438 0.95455
0.48774 0.57583 0.95455
0.42667 0.58728 0.95455
0.3656 0.59873 0.95455
0.30453 0.61018 0.95455
0.24346 0.62163 0.95455
0.18239 0.63308 0.95455
0.12132 0.64453 0.95455
0.060256 0.65598 0.95455
0.99919 0.66743 0.95455
0.93812 0.67888 0.95455
0.92285 0.55674 0.95455
0.86178 0.56819 0.95455
0.80071 0.57964 0.95455
0.73964 0.59109 0.95455
0.67858 0.60254 0.95455
0.61751 0.61399 0.95455
0.55644 0.62544 0.95455
0.49537 0.63689 0.95455
0.4343 0.64834 0.95455
0.37323 0.6598 0.95455
0.31216 0.67125 0.95455
0.2511 0.6827 0.95455
0.19003 0.69415 0.95455
0.12896 0.7056 0.95455
0.067889 0.71705 0.95455
0.0068205 0.7285 0.95455
0.94575 0.73995 0.95455
0.93048 0.61781 0.95455
0.86942 0.62926 0.95455
0.80835 0.64071 0.95455
0.74728 0.65216 0.95455
0.68621 0.66361 0.95455
0.62514 0.67506 0.95455
0.56407 0.68651 0.95455
0.503 0.69796 0.95455
0.44194 0.70941 0.95455
0.38087 0.72086 0.95455
0.3198 0.73231 0.95455
0.25873 0.74376 0.95455
0.19766 0.75521 0.95455
0.13659 0.76667 0.95455
0.075523 0.77812 0.95455
0.014454 0.78957 0.95455
0.95339 0.80102 0.95455
0.87705 0.69033 0.95455
0.81598 0.70178 0.95455
0.75491 0.71323 0.95455
0.69384 0.72468 0.95455
0.63277 0.73613 0.95455
0.57171 0.74758 0.95455
0.51064 0.75903 0.95455
0.44957 0.77048 0.95455
0.3885 0.78193 0.95455
0.32743 0.79338 0.95455
0.26636 0.80483 0.95455
0.20529 0.81628 0.95455
0.14423 0.82773 0.95455
0.083156 0.83918 0.95455
0.022088 0.85063 0.95455
0.96102 0.86209 0.95455
0.88468 0.7514 0.95455
0.82361 0.76285 0.95455
0.76255 0.7743 0.95455
0.70148 0.78575 0.95455
0.64041 0.7972 0.95455
0.57934 0.80865 0.95455
0.51827 0.8201 0.95455
0.4572 0.83155 0.95455
0.39613 0.843 0.95455
0.33506 0.85445 0.95455
0.274 0.8659 0.95455
0.21293 0.87735 0.95455
0.15186 0.8888 0.95455
0.09079 0.90025 0.95455
0.029721 0.9117 0.95455
0.96865 0.92315 0.95455
0.89232 0.81247 0.95455
0.83125 0.82392 0.95455
0.77018 0.83537 0.95455
0.70911 0.84682 0.95455
0.64804 0.85827 0.95455
0.58697 0.86972 0.95455
0.5259 0.88117 0.95455
0.46484 0.89262 0.95455
0.40377 0.90407 0.95455
0.3427 0.91552 0.95455
0.28163 0.92697 0.95455
0.22056 0.93842 0.95455
0.15949 0.94987 0.95455
0.098424 0.96132 0.95455
0.037355 0.97277 0.95455
0.97629 0.98422 0.95455
0.89995 0.87354 0.95455
0.83888 0.88499 0.95455
0.77781 0.89644 0.95455
0.71674 0.90789 0.95455
0.65568 0.91934 0.95455
0.59461 0.93079 0.95455
0.53354 0.94224 0.95455
0.47247 0.95369 0.95455
0.4114 0.96514 0.95455
0.35033 0.97659 0.95455
0.28926 0.98804 0.95455
0.22819 0.99949 0.95455
0.16713 0.01094 0.95455
0.10606 0.022391 0.95455
0.044988 0.033841 0.95455
0.98392 0.045291 0.95455
0.90758 0.9346 0.95455
0.84652 0.94605 0.95455
0.78545 0.95751 0.95455
0.72438 0.96896 0.95455
0.66331 0.98041 0.95455
0.60224 0.99186 0.95455
0.54117 0.0033066 0.95455
0.4801 0.014757 0.95455
0.41903 0.026207 0.95455
0.35797 0.037658 0.95455
0.91522 0.99567 0.95455
0.85415 0.0071234 0.95455
0.79308 0.018574 0.95455
0.73201 0.030024 0.95455
0.67094 0.041475 0.95455
